NAME: bip_40_2
TYPE: TSP
COMMENT: bip_40_2
DIMENSION: 40
EDGE_WEIGHT_TYPE: EUC_2D
NODE_COORD_SECTION
1 57 35
2 79 82
3 81 64
4 20 52
5 17 96
6 80 83
7 23 93
8 77 33
9 42 79
10 26 26
11 16 19
12 46 41
13 93 44
14 55 65
15 74 25
16 58 70
17 89 1
18 53 20
19 35 8
20 63 83
21 449 443
22 400 403
23 461 474
24 419 442
25 444 485
26 411 417
27 485 459
28 418 453
29 450 429
30 442 485
31 435 499
32 410 419
33 435 499
34 465 432
35 423 499
36 435 440
37 400 415
38 446 445
39 410 446
40 458 477
